c FILE: jean.col
c Translated from Stanford GraphBase File: jean.gb
c Stanford GraphBase ID: book(?jean?,80,0,1,356,0,0,0)
p edge 80 508
e 5 3
e 7 4
e 9 4
e 9 7
e 10 5
e 14 1
e 14 2
e 14 12
e 15 7
e 15 9
e 16 6
e 17 5
e 17 10
e 19 4
e 19 7
e 19 9
e 19 15
e 20 5
e 20 10
e 20 17
e 22 5
e 22 10
e 22 17
e 22 20
e 23 15
e 24 14
e 25 3
e 26 15
e 27 3
e 27 25
e 28 3
e 28 5
e 28 6
e 28 9
e 29 15
e 29 26
e 30 28
e 31 28
e 32 14
e 33 3
e 33 15
e 33 25
e 33 27
e 34 4
e 34 7
e 34 9
e 34 15
e 34 19
e 35 6
e 35 9
e 35 16
e 35 28
e 36 29
e 37 2
e 37 3
e 37 5
e 37 6
e 37 9
e 37 10
e 37 14
e 37 15
e 37 17
e 37 20
e 37 22
e 37 28
e 37 29
e 37 30
e 37 31
e 37 35
e 38 7
e 38 9
e 38 15
e 38 19
e 38 34
e 39 5
e 39 10
e 39 17
e 39 20
e 39 22
e 39 37
e 40 3
e 40 25
e 40 27
e 40 33
e 41 14
e 42 11
e 43 13
e 43 28
e 43 37
e 44 3
e 44 18
e 44 28
e 44 35
e 44 37
e 45 29
e 46 3
e 46 28
e 46 37
e 47 4
e 47 7
e 47 9
e 47 19
e 47 34
e 48 6
e 48 15
e 48 16
e 48 18
e 48 34
e 48 35
e 48 38
e 48 44
e 50 4
e 50 7
e 50 9
e 50 19
e 50 34
e 52 38
e 53 37
e 54 3
e 54 46
e 55 6
e 55 16
e 55 28
e 55 35
e 55 37
e 55 44
e 55 48
e 56 8
e 57 3
e 57 6
e 57 15
e 57 16
e 57 18
e 57 28
e 57 35
e 57 37
e 57 44
e 57 48
e 57 51
e 57 55
e 58 6
e 58 16
e 58 28
e 58 35
e 58 37
e 58 44
e 58 48
e 58 55
e 58 57
e 59 15
e 59 26
e 59 28
e 59 29
e 59 30
e 59 33
e 59 37
e 59 44
e 59 57
e 60 3
e 60 37
e 61 37
e 62 37
e 63 3
e 63 25
e 63 27
e 63 33
e 63 40
e 64 28
e 64 37
e 64 59
e 65 14
e 66 4
e 66 7
e 66 9
e 66 15
e 66 19
e 66 34
e 66 37
e 66 38
e 66 47
e 66 50
e 67 37
e 68 4
e 68 7
e 68 9
e 68 15
e 68 19
e 68 34
e 68 38
e 68 50
e 68 66
e 69 3
e 69 25
e 69 27
e 69 33
e 69 40
e 69 63
e 70 37
e 72 4
e 72 6
e 72 7
e 72 8
e 72 9
e 72 11
e 72 15
e 72 16
e 72 19
e 72 28
e 72 34
e 72 37
e 72 38
e 72 42
e 72 47
e 72 50
e 72 55
e 72 57
e 72 58
e 72 66
e 72 68
e 73 3
e 73 25
e 73 27
e 73 33
e 73 40
e 73 63
e 73 69
e 74 44
e 75 2
e 75 14
e 75 37
e 76 15
e 76 45
e 76 57
e 77 15
e 77 23
e 77 26
e 77 29
e 77 37
e 77 59
e 77 74
e 78 37
e 78 43
e 79 4
e 79 7
e 79 9
e 79 15
e 79 19
e 79 34
e 79 38
e 79 50
e 79 66
e 79 68
e 79 72
e 80 14
